NAME : sample10
COMMENT : Sample dataset with 10 nodes
COMMENT : Derived from Zainab
TYPE : TSP
DIMENSION : 10
EDGE_WEIGHT_TYPE : EUC_2D
NODE_COORD_SECTION
1 10.0000 20.0000
2 15.0000 25.0000
3 30.0000 15.0000
4 25.0000 10.0000
5 5.0000 5.0000
6 18.0000 12.0000
7 22.0000 30.0000
8 27.0000 17.0000
9 8.0000 28.0000
10 35.0000 22.0000
EOF
